# Cell file generated by matador (Matthew Evans 2016)

%BLOCK LATTICE_CART
1 0 0
0 1 0
0 0 1
%ENDBLOCK LATTICE_CART

%BLOCK POSITIONS_FRAC
%ENDBLOCK POSITIONS_FRAC

SYMMETRY_TOL: 0.001
SYMMETRY_GENERATE
SNAP_TO_SYMMETRY

%BLOCK EXTERNAL_PRESSURE
0.0 0.0 0.0
0.0 0.0
0.0
%ENDBLOCK EXTERNAL_PRESSURE

kpoints_mp_spacing : 0.07

%BLOCK SPECIES_POT
P P_00PBE.usp
K K_00PBE.usp
Sn Sn_00PBE.usp
%ENDBLOCK SPECIES_POT
